32      2       
24      36      
0       0       0       3       2       3       4       
7       2       0       2       23      26      
2       9       0       3       5       9       10      
5       0       8       3       6       7       8       
7       0       9       3       14      20      21      
3       0       2       2       11      17      
7       1       0       1       30      
3       0       3       1       27      
7       5       0       3       12      18      28      
1       10      0       1       16      
5       9       0       2       19      28      
6       0       9       1       13      
9       0       1       1       23      
9       5       0       1       15      
6       0       10      2       25      31      
7       4       0       1       22      
7       0       10      1       29      
3       10      0       1       24      
6       0       8       2       22      29      
5       8       0       1       24      
10      0       8       2       23      25      
6       10      0       1       27      
4       7       0       2       27      31      
5       0       10      1       25      
7       0       5       1       29      
8       0       8       1       30      
3       4       0       1       30      
10      0       8       1       31      
10      3       0       1       32      
7       0       6       1       32      
10      0       7       1       32      
0       0       0       0       